echo
start h2_dft_property
title "H2 DFT property dipole"
geometry units angstrom noautosym
  H 0.0 0.0 -0.3707
  H 0.0 0.0  0.3707
end
basis spherical
  H library sto-3g
end
dft
  xc b3lyp
  iterations 50
end
property
  dipole
end
task dft property
